c Sudoku solution
p cnf 729 0
128 0
151 0
267 0
272 0
298 0
313 0
354 0
371 0
386 0
447 0
473 0
514 0
539 0
543 0
578 0
585 0
616 0
719 0
733 0
623 0
762 0
788 0
794 0
849 0
853 0
163 0
283 0
993 0
875 0
925 0
957 0
422 0
246 0
136 0
527 0
329 0
259 0
777 0
976 0
989 0
892 0
881 0
484 0
679 0
469 0
174 0
187 0
395 0
199 0
337 0
112 0
145 0
342 0
368 0
932 0
817 0
741 0
755 0
866 0
726 0
911 0
824 0
838 0
215 0
418 0
221 0
234 0
456 0
552 0
561 0
435 0
631 0
491 0
596 0
658 0
665 0
644 0
948 0
964 0
682 0
697 0
